(set-option :produce-models true)
(set-logic QF_UF)
(declare-fun p16() Bool)
(declare-fun p37() Bool)
(declare-fun p10() Bool)
(declare-fun p27() Bool)
(declare-fun p12() Bool)
(declare-fun p29() Bool)
(declare-fun p5() Bool)
(declare-fun p9() Bool)
(declare-fun p17() Bool)
(declare-fun p34() Bool)
(declare-fun p23() Bool)
(declare-fun p2() Bool)
(declare-fun p13() Bool)
(declare-fun p21() Bool)
(declare-fun p24() Bool)
(declare-fun p7() Bool)
(declare-fun p28() Bool)
(declare-fun p26() Bool)
(declare-fun p11() Bool)
(declare-fun p22() Bool)
(declare-fun p36() Bool)
(declare-fun p4() Bool)
(declare-fun p8() Bool)
(declare-fun p0() Bool)
(declare-fun p30() Bool)
(declare-fun p25() Bool)
(declare-fun p18() Bool)
(declare-fun p3() Bool)
(declare-fun p38() Bool)
(declare-fun p1() Bool)
(declare-fun p31() Bool)
(declare-fun p14() Bool)
(declare-fun p6() Bool)
(declare-fun p20() Bool)
(declare-fun p35() Bool)
(declare-fun p39() Bool)
(declare-fun p19() Bool)
(declare-fun p32() Bool)
(declare-fun p15() Bool)
(declare-fun p33() Bool)
(assert
(and (or (not p16) p37 (not p10) p27 p12) (or (not p29) p27 p5 (not p9) p17) (or p34 (not p23) (not p2) (not p13) (not p17)) (or (not p21) (not p24) (not p27) (not p7) p24) (or (not p28) (not p26) (not p12) (not p11) (not p22)) (or (not p13) p36 p10 (not p4) p8) (or (not p0) (not p29) (not p12) p7 (not p30)) (or p25 (not p18) p3 (not p16) p34) (or p28 (not p25) p8 p4 p29) (or (not p27) (not p4) (not p13) p28 p25) (or (not p36) (not p11) (not p38) (not p4) p12) (or p1 p8 p31 p11 p37) (or (not p24) p14 (not p36) p11 p26) (or (not p12) p6 (not p14) (not p1) (not p29)) (or (not p20) p31 p13 p26 (not p28)) (or (not p1) (not p4) (not p14) p27 (not p21)) (or p1 (not p0) p10 p10 p28) (or p26 p35 p4 p39 p0) (or p9 (not p12) (not p35) (not p1) p16) (or p19 p27 (not p36) (not p12) (not p7)) (or p27 p11 (not p22) (not p17) (not p16)) (or p20 p31 (not p8) (not p24) (not p6)) (or (not p11) p1 (not p26) (not p39) p34) (or p23 (not p18) (not p11) p9 (not p9)) (or (not p38) (not p39) (not p30) p8 p5) (or (not p31) p19 p4 p8 p10) (or p7 (not p25) p38 (not p4) (not p9)) (or (not p13) p32 p27 p4 (not p29)) (or p9 (not p35) (not p36) p38 p10) (or (not p13) p9 (not p26) (not p16) (not p6)) (or p7 p15 p37 p8 p32) (or p30 (not p14) (not p22) (not p23) p12) (or p26 (not p2) (not p18) p16 p21) (or p27 p22 p8 (not p4) p5) (or p14 (not p20) (not p5) (not p13) (not p28)) (or p25 p17 (not p36) p33 p24) (or (not p13) (not p8) (not p33) p9 p33) (or (not p32) p10 p8 p17 p6) (or p6 (not p23) (not p26) p10 (not p1)) (or (not p2) (not p9) (not p21) (not p27) p25) (or (not p31) (not p0) (not p13) (not p2) p12) (or p16 (not p19) (not p5) (not p14) (not p19)) (or p24 p25 p2 (not p38) p18) (or (not p13) (not p20) p21 p2 p25) (or p22 p28 p18 (not p22) (not p19)) (or (not p8) p8 (not p33) (not p19) (not p30)) (or p7 (not p26) p22 (not p6) p3) (or p39 p11 (not p10) (not p30) p3) (or p31 p10 p36 (not p13) p3) (or (not p26) (not p2) p35 (not p38) (not p19)) (or (not p17) (not p4) (not p39) (not p20) p29) (or p5 p21 p17 p7 (not p38)) (or p36 p23 (not p22) p3 p37) (or p33 (not p20) (not p28) p11 (not p9)) (or (not p34) p19 (not p18) p4 p13) (or p6 (not p9) p30 (not p8) p39) (or (not p33) p3 p2 (not p35) (not p38)) (or p24 p19 (not p25) (not p11) (not p36)) (or (not p14) p13 (not p9) (not p37) p16) (or (not p20) p13 (not p2) (not p4) p21) (or p18 p32 p0 (not p20) (not p33)) (or p28 p0 p36 (not p21) (not p6)) (or (not p11) (not p21) (not p24) (not p17) p38) (or (not p25) (not p13) (not p15) (not p23) (not p38)) (or p19 (not p15) (not p30) p24 p9) (or (not p1) (not p2) (not p37) p11 (not p3)) (or p8 p23 p24 p9 (not p25)) (or p4 (not p14) (not p0) (not p7) p23) (or p36 (not p25) (not p18) (not p29) p15) (or (not p9) p33 p21 p19 (not p19)) (or (not p5) p39 p35 (not p17) p35) (or p34 (not p34) (not p28) p24 p17) (or p8 p15 p15 (not p11) (not p37)) (or p0 p6 (not p34) (not p7) p25) (or (not p33) p19 p4 p12 p17) (or (not p33) (not p5) p16 (not p39) (not p31)) (or (not p32) p31 (not p27) p32 p30) (or p4 p6 (not p21) p14 p8) (or (not p26) (not p1) (not p1) (not p20) (not p8)) (or p24 p5 p20 (not p5) (not p20)) (or (not p34) p26 p33 (not p1) p11) (or (not p9) (not p38) (not p32) p32 (not p7)) (or (not p36) (not p23) (not p32) p33 (not p2)) (or p11 (not p0) (not p6) (not p12) p17) (or (not p24) p30 (not p33) p17 p11) (or (not p2) (not p0) p12 p9 (not p2)) (or (not p8) p31 (not p19) p3 p11) (or (not p19) p14 p12 (not p6) (not p5)) (or p39 (not p36) (not p0) p39 p39) (or p11 (not p27) (not p24) (not p29) (not p1)) (or (not p24) p12 (not p17) p39 p22) (or p2 (not p23) p5 p2 p36) (or (not p5) (not p38) p13 p23 p15) (or (not p34) p33 p13 p33 p14) (or (not p12) p28 p2 (not p18) (not p15)) (or p12 p22 p14 (not p17) (not p26)) (or (not p6) p1 (not p2) p32 p21) (or p12 p34 p30 (not p11) (not p39)) (or (not p35) p26 (not p15) p14 p13) (or (not p25) p3 (not p10) (not p22) (not p2)) (or (not p5) (not p19) p4 (not p4) p4) (or p21 (not p30) (not p12) (not p8) (not p18)) (or (not p1) p15 p11 p15 (not p38)) (or p22 (not p15) p27 p3 (not p7)) (or p34 p33 p33 p9 (not p21)) (or p8 p15 p22 p3 p39) (or p2 (not p37) (not p33) (not p32) p6) (or p20 (not p26) p14 (not p31) p3) (or p4 (not p8) p27 p35 (not p7)) (or (not p38) p13 (not p23) p6 p25) (or (not p8) p32 p27 (not p0) p4) (or p24 (not p8) (not p34) (not p29) p21) (or p13 (not p21) (not p29) (not p11) (not p17)) (or p19 p19 p8 (not p16) p13) (or (not p38) (not p34) (not p3) (not p3) (not p27)) (or (not p18) p17 p33 (not p30) p30) (or (not p5) p34 p17 (not p23) (not p30)) (or p19 (not p8) p5 p14 (not p28)) (or p33 p26 (not p25) (not p39) p10) (or (not p25) (not p39) p23 (not p16) (not p37)) (or p20 (not p15) (not p36) p7 (not p20)) (or (not p27) p24 p21 p15 (not p5)) (or (not p23) p33 (not p18) (not p13) p24) (or p27 (not p33) p32 p0 p0) (or (not p0) (not p10) (not p0) p33 p10) (or (not p2) (not p8) p26 p16 (not p34)) (or p30 p9 (not p33) (not p24) p39) (or (not p4) (not p5) p30 p18 p4) (or (not p16) p28 (not p4) p2 (not p4)) (or (not p24) (not p33) (not p16) p14 p36) (or (not p36) (not p11) (not p5) (not p22) p35) (or (not p4) p11 (not p8) (not p24) p27) (or p3 (not p17) p3 (not p2) (not p20)) (or (not p30) (not p12) (not p2) (not p26) p9) (or p30 p20 (not p38) (not p0) (not p31)) (or (not p26) p38 (not p6) p39 (not p28)) (or p25 p28 (not p22) (not p2) p23) (or p20 (not p27) p39 p14 p3) (or (not p7) p20 (not p12) (not p32) p11) (or (not p7) p37 p8 p38 p18) (or p29 p36 (not p39) p27 (not p18)) (or p1 (not p0) (not p34) p14 (not p27)) (or p14 p3 (not p22) (not p15) p30) (or (not p27) (not p39) (not p0) (not p1) p2) (or (not p4) p22 p20 (not p13) p16) (or (not p11) (not p31) p16 p18 (not p11)) (or p27 p1 p35 (not p0) (not p20)) (or (not p36) p20 p20 (not p27) p32) (or p29 (not p16) p20 p3 (not p2)) (or p8 p31 (not p27) (not p16) p27) (or (not p8) p24 p25 p21 p20) (or (not p14) (not p38) (not p13) (not p26) (not p27)) (or p29 p31 p26 p32 p10) (or (not p28) (not p38) p4 (not p23) p27) (or (not p32) (not p17) p39 (not p12) (not p24)) (or (not p12) p32 p22 p11 (not p5)) (or p38 (not p22) (not p4) p39 p36) (or (not p18) p10 p15 (not p13) p22) (or p23 p25 p25 p39 (not p17)) (or (not p4) p14 (not p20) (not p5) p7) (or p4 p27 p31 p20 p26) (or (not p24) (not p20) (not p16) p2 (not p6)) (or p13 (not p30) p15 (not p13) p31) (or (not p25) (not p35) p12 (not p10) p1) (or (not p4) p39 (not p2) p2 (not p19)) (or p25 p39 (not p18) p22 (not p11)) (or (not p23) (not p26) (not p25) p1 (not p9)) (or p34 p33 (not p2) (not p9) p15) (or (not p2) p10 p27 p0 (not p0)) (or p15 (not p6) (not p7) p37 p14) (or (not p12) (not p11) (not p18) p30 (not p38)) (or (not p32) (not p18) p5 (not p16) (not p31)) (or p39 p8 (not p34) p30 p35) (or (not p24) (not p19) (not p35) p28 (not p4)) (or p16 (not p38) p16 p28 p24) (or p21 p5 p16 (not p38) p7) (or (not p28) p35 p17 (not p13) (not p5)) (or (not p6) (not p12) (not p18) p27 p13) (or p8 (not p14) (not p30) p10 p18) (or p31 p36 (not p12) (not p14) (not p19)) (or p21 p5 p30 (not p23) p27) (or (not p4) p17 p9 p25 p3) (or p18 p38 (not p30) p24 (not p29)) (or (not p28) p1 (not p9) p7 (not p37)) (or p5 p18 p38 (not p36) (not p12)) (or p20 (not p25) p33 (not p16) (not p7)) (or (not p16) (not p39) (not p21) p24 p4) (or p24 (not p15) p28 (not p23) (not p29)) (or p18 (not p24) p14 (not p5) p35) (or (not p29) p2 p23 (not p30) (not p6)) (or p9 p38 p28 p9 p18) (or (not p2) (not p29) (not p2) (not p14) p8) (or p6 (not p35) (not p7) p25 (not p36)) (or p0 (not p15) p24 p18 (not p18)) (or p20 (not p6) p24 (not p33) (not p29)) (or (not p13) (not p14) (not p27) p16 p21) (or p19 p18 (not p29) (not p17) p29) (or p3 p27 (not p33) p8 (not p36)) (or p1 (not p6) p15 (not p37) (not p33)) (or p1 p6 p2 (not p36) (not p27)) (or p25 p7 (not p13) p9 (not p35)) (or p5 (not p4) p4 (not p35) p39) (or (not p13) (not p23) p31 p15 (not p26)) (or (not p18) p31 (not p8) (not p33) p30) (or (not p5) p38 p17 (not p13) p22) (or (not p33) p27 p29 (not p10) p39) (or p17 (not p37) (not p4) p3 p15) (or p25 (not p16) p32 p23 (not p0)) (or p32 (not p37) (not p10) p38 p35) (or p7 (not p0) p27 p30 (not p38)) (or p31 p0 (not p38) p22 (not p23)) (or (not p31) p21 (not p29) p11 p4) (or (not p1) p4 (not p26) (not p32) (not p36)) (or (not p13) (not p26) (not p4) (not p7) p24) (or p19 (not p14) p19 (not p20) (not p35)) (or p8 (not p18) p8 p19 p5) (or p33 (not p9) p19 p16 (not p31)) (or (not p20) (not p4) p32 (not p6) p30) (or (not p34) (not p15) (not p24) (not p21) (not p39)) (or p11 p11 p38 p32 (not p14)) (or p26 (not p35) p24 p22 p17) (or (not p15) (not p12) p39 p13 p15) (or p25 (not p13) p23 (not p37) (not p14)) (or p24 (not p31) (not p14) (not p27) (not p19)) (or p35 (not p16) (not p15) p37 (not p37)) (or (not p5) (not p29) p37 p27 (not p20)) (or p35 p23 (not p29) p21 (not p9)) (or (not p18) p33 p0 (not p31) p21) (or (not p27) p20 (not p8) (not p18) (not p5)) (or p14 p37 p18 p35 p9) (or (not p24) (not p25) (not p12) (not p17) (not p19)) (or (not p29) p8 (not p10) p5 (not p11)) (or (not p32) (not p8) p22 p25 p4) (or p27 p8 p24 p5 p23) (or p30 (not p11) (not p23) p39 p3) (or p17 (not p29) p4 (not p30) p11) (or (not p20) (not p4) (not p31) (not p31) (not p31)) (or (not p31) p19 p13 p13 (not p15)) (or p22 p11 p6 (not p17) p22) (or p20 (not p11) p27 p9 (not p16)) (or (not p36) (not p11) p10 p28 p30) (or (not p11) p5 (not p0) p23 (not p27)) (or p38 p0 p7 (not p33) p1) (or (not p30) p28 (not p18) p38 (not p6)) (or (not p37) (not p17) (not p28) (not p33) p35) (or p14 p15 (not p15) p4 (not p30)) (or (not p22) p37 (not p30) p14 (not p32)) (or (not p5) p23 p37 (not p35) p0) (or p20 p19 p39 (not p33) p6) (or (not p35) (not p37) p37 p29 (not p20)) (or (not p10) (not p14) p35 (not p15) p6) (or p26 p31 (not p16) (not p27) (not p11)) (or p16 (not p26) p9 (not p7) (not p11)) (or p27 p21 (not p26) p31 (not p3)) (or p2 p26 p23 (not p20) p24) (or p3 (not p22) p3 p37 (not p12)) (or (not p38) (not p5) p5 p36 (not p26)) (or p35 (not p27) p20 (not p7) (not p31)) (or p8 (not p14) p34 (not p21) (not p39)) (or (not p23) p32 p17 (not p25) p36) (or p2 p10 p8 p35 (not p33)) (or (not p8) p0 (not p2) p21 p12) (or (not p31) p2 (not p20) p16 p10) (or (not p8) p10 (not p14) p15 (not p28)) (or (not p6) (not p25) p19 p10 p16) (or p29 (not p39) p17 p29 p37) (or (not p12) (not p11) p37 (not p10) (not p14)) (or (not p10) (not p26) (not p30) (not p25) (not p19)) (or (not p9) p29 (not p25) p30 p9) (or p22 p7 (not p30) (not p8) (not p18)) (or (not p19) (not p30) (not p34) (not p9) p26) (or (not p18) p9 p37 (not p32) p12) (or p29 (not p15) p20 p3 (not p3)) (or p21 (not p31) p3 p34 p8) (or p0 p12 (not p22) (not p21) (not p19)) (or p34 p13 p33 (not p27) p29) (or p29 (not p24) p9 (not p39) p26) (or p27 (not p19) (not p30) p12 p10) (or (not p32) p30 (not p19) (not p2) p16) (or p33 (not p27) (not p28) p34 (not p18)) (or (not p2) p34 p13 (not p18) p6) (or (not p27) p6 p4 p10 (not p12)) (or (not p4) p39 (not p35) p10 (not p11)) (or (not p7) (not p32) p13 p26 p0) (or (not p33) p35 p10 (not p12) (not p37)) (or (not p39) (not p7) (not p12) (not p31) (not p39)) (or p33 p9 p15 (not p28) (not p21)) (or (not p6) p7 p14 p35 (not p38)) (or p4 p23 (not p3) p18 p22) (or (not p13) p14 p7 p28 (not p7)) (or p6 p6 p35 (not p36) p28) (or (not p5) (not p38) p8 (not p20) p6) (or (not p26) p33 p25 p30 p3) (or p11 p8 p37 (not p8) p10) (or (not p27) p36 p11 p22 p3) (or p38 (not p26) (not p35) p15 (not p17)) (or (not p36) (not p29) (not p32) p25 (not p11)) (or (not p38) p5 p25 p1 p35) (or p9 (not p4) p38 p36 (not p29)) (or (not p24) p34 p34 (not p31) (not p25)) (or p14 p21 (not p34) p31 p18) (or p26 p19 (not p37) p25 (not p35)) (or p28 (not p16) (not p4) (not p24) p31) (or p30 (not p24) p3 p15 (not p24)) (or p22 (not p14) p37 p0 p5) (or (not p2) p4 (not p2) p20 (not p23)) (or p17 p15 (not p39) (not p7) p33) (or p38 (not p11) (not p20) p22 (not p21)) (or (not p29) (not p37) p12 p38 p23) (or p32 p35 (not p7) (not p5) (not p30)) (or p5 (not p39) (not p28) (not p34) p25) (or p6 p25 p33 (not p14) (not p31)) (or p0 p19 (not p16) p23 (not p2)) (or (not p24) p27 (not p1) p16 p2) (or p28 (not p39) p20 p26 p35) (or (not p24) p25 p2 (not p2) p18) (or p18 (not p18) p18 (not p8) p27) (or (not p6) (not p8) p3 p34 (not p23)) (or (not p2) p38 (not p3) (not p8) p9) (or p15 (not p38) (not p34) (not p30) (not p6)) (or (not p0) p10 (not p14) p11 p21) (or (not p15) p32 p20 (not p22) p9) (or (not p17) (not p28) p35 (not p7) (not p10)) (or p26 p31 (not p18) (not p18) (not p16)) (or p25 (not p36) p6 p39 (not p1)) (or p20 (not p25) p14 p25 (not p7)) (or p31 p11 (not p13) p8 (not p10)) (or p21 (not p35) (not p36) (not p0) (not p0)) (or (not p8) p26 p1 p3 (not p31)) (or (not p34) (not p38) p14 (not p21) (not p5)) (or (not p27) p18 p29 (not p25) p38) (or (not p7) p32 p3 (not p37) (not p9)) (or p16 (not p24) (not p14) p30 p36) (or p30 (not p4) (not p6) (not p18) (not p30)) (or (not p12) (not p6) (not p9) (not p25) (not p1)) (or (not p6) p3 p32 (not p19) (not p15)) (or (not p20) (not p27) p9 (not p37) (not p17)) (or (not p29) p22 (not p39) (not p0) p23) (or (not p13) p38 (not p6) (not p2) (not p23)) (or p30 p35 (not p8) p3 (not p19)) (or p9 p21 (not p18) p33 p20) (or p9 (not p25) (not p35) p25 p23) (or p0 p11 (not p14) p28 p21) (or (not p9) (not p15) p9 p16 (not p18)) (or (not p25) p17 p37 p28 p14) (or (not p39) (not p26) p17 (not p12) p12) (or p6 p33 (not p25) p3 (not p19)) (or (not p17) (not p23) p11 (not p16) (not p12)) (or p29 p25 p26 p24 p33) (or p12 p20 (not p16) (not p13) (not p32)) (or p0 p37 (not p7) (not p5) (not p15)) (or p8 p16 (not p19) p13 p16) (or (not p14) (not p33) (not p34) p4 p4) (or (not p30) (not p29) p13 (not p31) (not p33)) (or p6 (not p3) p7 p19 p15) (or (not p33) p16 (not p11) (not p25) p12) (or p9 (not p23) p35 (not p35) (not p13)) (or (not p0) (not p32) p33 p4 (not p7)) (or p32 p2 p23 (not p34) p18) (or (not p39) (not p16) p21 p7 (not p35)) (or p38 (not p9) (not p33) p3 (not p34)) (or p31 (not p5) (not p19) p35 (not p0)) (or (not p21) p23 p31 p12 (not p27)) (or p35 (not p33) p15 (not p5) p8) (or p35 p11 p34 (not p30) p29) (or (not p16) p37 (not p28) (not p32) p15) (or p31 p13 (not p12) (not p25) (not p27)) (or (not p36) (not p6) p32 p31 p31) (or (not p10) p19 (not p5) p8 (not p2)) (or (not p19) p10 p8 (not p26) p10) (or p9 (not p4) (not p38) p4 (not p33)) (or p23 p16 p17 p22 p34) (or p28 p34 (not p30) p13 (not p14)) (or (not p26) p27 (not p9) (not p13) p33) (or (not p6) (not p21) p14 p4 (not p24)) (or (not p14) (not p16) p31 (not p30) p33) (or p34 (not p17) p0 p29 (not p31)) (or p3 p37 (not p14) p32 p35) (or (not p15) p25 (not p7) p1 (not p14)) (or (not p36) (not p38) p12 p38 p26) (or (not p23) p6 p0 p8 p35) (or p29 p37 (not p10) (not p10) (not p28)) (or (not p24) (not p9) (not p23) p15 (not p12)) (or p14 p39 p37 p34 p32) (or (not p11) p17 (not p35) (not p16) (not p22)) (or p14 p3 (not p16) p37 (not p34)) (or (not p23) (not p15) p26 p2 p22) (or (not p6) p28 p15 p3 (not p16)) (or (not p31) p38 p37 (not p14) p28) (or (not p10) (not p16) (not p27) (not p20) (not p14)) (or (not p18) p31 p19 (not p6) (not p0)) (or p18 (not p7) p3 p23 p8) (or p8 p17 p14 p4 p24) (or (not p30) p8 (not p35) (not p9) p23) (or (not p19) p17 p0 (not p19) (not p18)) (or (not p33) (not p32) p16 p20 p0) (or p35 p1 p9 p12 (not p7)) (or p3 (not p26) p27 (not p23) p9) (or (not p35) p7 (not p33) (not p11) (not p17)) (or p21 (not p29) (not p0) p39 p10) (or p5 p34 (not p27) (not p20) p29) (or (not p32) p20 (not p7) p22 (not p28)) (or p7 p38 (not p12) (not p8) (not p20)) (or p36 p23 (not p18) (not p35) (not p22)) (or p36 (not p34) p20 (not p22) (not p17)) (or p15 p20 p2 (not p5) (not p0)) (or (not p27) p27 p39 (not p37) (not p16)) (or (not p32) (not p24) (not p31) p12 (not p30)) (or p30 (not p7) p6 p39 p16) (or (not p25) (not p2) p37 p18 p21) (or (not p2) p20 (not p18) p15 p16) (or (not p23) (not p9) (not p17) (not p33) (not p24)) (or (not p12) p27 p39 p35 p20) (or (not p29) p1 p3 p29 p16) (or (not p14) p24 (not p32) (not p16) p3) (or p29 (not p1) (not p21) (not p25) p18) (or p18 (not p29) (not p29) p3 p32) (or p2 (not p4) (not p0) (not p11) p1) (or (not p34) p5 p1 (not p1) (not p35)) (or p22 p32 p25 p14 (not p16)) (or p39 (not p22) p31 p36 (not p10)) (or (not p21) p5 (not p8) (not p14) p33) (or p33 p20 p7 p2 p15) (or p39 (not p3) (not p32) (not p29) (not p8)) (or (not p5) (not p20) p27 (not p12) (not p4)) (or (not p37) (not p17) p36 p2 p31) (or (not p17) (not p20) (not p4) (not p0) p22) (or (not p36) p10 p27 (not p15) p31) (or (not p20) p5 p39 (not p35) (not p39)) (or p35 (not p8) (not p1) p2 (not p26)) (or (not p34) (not p25) (not p28) p19 (not p1)) (or p29 (not p12) p18 p0 p37) (or (not p16) (not p27) (not p24) p29 (not p28)) (or (not p7) p0 (not p2) p25 p18) (or (not p29) p39 p19 p9 p19) (or p1 (not p11) (not p32) p38 (not p4)) (or (not p35) (not p16) p9 (not p7) (not p1)) (or (not p37) p33 (not p29) (not p5) p17) (or (not p18) p7 (not p5) (not p19) p31) (or p37 (not p34) p5 p29 p13) (or (not p25) p38 p9 p29 (not p6)) (or p37 (not p19) p2 p30 (not p22)) (or (not p2) (not p21) (not p37) p11 p5) (or (not p37) p28 (not p21) p14 (not p3)) (or p39 (not p30) (not p36) p30 (not p26)) (or p16 p19 (not p39) p4 p1) (or p21 p4 (not p28) (not p38) (not p34)) (or p33 (not p8) p22 p39 p33) (or p8 (not p11) (not p12) (not p1) p13) (or (not p39) p13 p32 p14 p9) (or (not p17) (not p32) (not p0) p36 p2) (or p27 (not p0) p14 p4 p31) (or p37 (not p1) p29 (not p24) p19) (or (not p15) p36 (not p11) p22 p18) (or p16 (not p15) p38 p26 p37) (or p21 p0 p11 p37 p26) (or p30 (not p39) (not p35) p7 (not p10)) (or p32 (not p13) p17 (not p2) (not p12)) (or (not p12) (not p27) p6 (not p25) (not p35)) (or p8 p2 p12 p24 (not p33)) (or p34 p21 p9 p17 (not p25)) (or (not p4) p1 (not p23) (not p23) p21) (or (not p24) p39 p25 (not p6) p37) (or (not p23) p23 (not p12) (not p30) p28) (or (not p39) p19 (not p31) p7 (not p22)) (or (not p28) p17 (not p28) p22 (not p8)) (or p14 (not p27) (not p24) (not p13) p2) (or p3 p25 p23 p35 p38) (or (not p31) (not p8) p32 (not p29) (not p18)) (or p6 (not p36) p20 p0 p22) (or p24 (not p38) p36 p19 p9) (or (not p31) (not p28) (not p14) (not p22) p20) (or p8 p20 (not p22) (not p10) p4) (or (not p34) p28 p26 (not p6) (not p25)) (or (not p5) (not p1) (not p5) (not p31) p9) (or p11 p20 p21 p39 (not p6)) (or p30 p34 p2 p4 p0) (or (not p2) p24 (not p27) (not p17) (not p25)) (or (not p34) p11 p33 p5 p2) (or p21 p2 p28 p39 (not p18)) (or (not p8) p28 p4 p6 (not p2)) (or (not p32) p34 p38 (not p32) p31) (or p10 (not p36) (not p27) (not p31) p8) (or p4 (not p7) p10 (not p11) p1) (or (not p21) (not p13) p12 p31 p35) (or (not p19) p32 p1 p16 (not p22)) (or p20 (not p26) (not p20) p25 (not p12)) (or (not p31) (not p18) p37 (not p34) p25) (or p9 (not p29) (not p19) (not p15) p31) (or p10 (not p39) p14 p22 p17) (or p23 (not p34) (not p2) (not p24) p22) (or (not p26) p13 p38 p37 p32) (or (not p24) p28 (not p11) p32 (not p25)) (or p18 p20 p35 p0 p22) (or (not p19) (not p12) (not p36) (not p7) p18) (or p1 (not p2) (not p2) p28 (not p26)) (or p15 p14 (not p30) p6 p36) (or (not p36) p36 p8 (not p34) p17) (or (not p6) (not p15) (not p23) p22 (not p37)) (or (not p4) (not p28) p27 p38 (not p19)) (or p10 (not p30) (not p5) p4 p8) (or (not p23) (not p36) (not p27) p4 p20) (or (not p1) p37 (not p16) p8 p11) (or p11 p9 (not p13) (not p26) p5) (or (not p14) p10 p8 (not p12) p30) (or p20 p19 p31 p16 (not p35)) (or (not p7) p35 p38 p32 (not p17)) (or p3 (not p21) (not p29) p34 (not p21)) (or (not p28) p19 (not p30) p2 (not p17)) (or (not p31) p18 p18 (not p33) p14) (or p25 p23 p2 (not p7) p18) (or p39 p9 p27 (not p38) (not p17)) (or p23 (not p15) p9 p30 p18) (or (not p2) p22 (not p37) (not p7) p38) (or p24 (not p22) p37 (not p22) p31) (or (not p2) (not p10) p1 p6 (not p18)) (or p26 p13 (not p31) p36 (not p38)) (or (not p28) (not p37) p13 (not p24) p18) (or p8 p26 (not p22) (not p11) (not p0)) (or (not p16) p12 (not p4) p16 (not p32)) (or (not p2) p27 (not p0) p26 (not p30)) (or p32 p37 (not p31) p17 p18) (or (not p29) (not p6) p14 p10 (not p9)) (or (not p29) (not p38) (not p15) p24 (not p10)) (or p12 p15 p23 (not p20) p27) (or p25 p18 (not p17) p18 (not p17)) (or (not p5) p22 p17 (not p2) (not p35)) (or p13 (not p1) p14 (not p31) (not p37)) (or p3 (not p23) (not p24) (not p6) (not p36)) (or (not p19) (not p21) (not p4) (not p23) p33) (or p25 p30 p28 p2 p16) (or (not p26) p9 p24 (not p11) p28) (or p17 (not p7) (not p13) (not p15) (not p7)) (or p4 (not p34) p39 (not p11) p16) (or p24 (not p6) (not p5) (not p38) (not p33)) (or (not p20) p29 (not p6) p22 (not p5)) (or (not p16) (not p39) (not p5) p30 (not p9)) (or p16 p26 p14 (not p23) (not p8)) (or (not p26) p39 (not p11) p10 (not p39)) (or p27 (not p18) (not p17) (not p9) p29) (or p36 (not p22) (not p35) p4 (not p2)) (or (not p35) p23 (not p25) p16 (not p10)) (or (not p29) p29 p3 p11 (not p36)) (or p9 (not p19) p16 p0 (not p26)) (or p15 p38 p6 (not p6) (not p1)) (or p8 (not p31) (not p16) (not p23) p3) (or p16 p18 (not p35) p5 p5) (or p27 p20 p14 p16 p14) (or (not p10) p29 p27 p36 (not p15)) (or p32 p31 (not p28) (not p9) p16) (or p17 (not p11) (not p38) p29 (not p14)) (or (not p21) p28 p27 p20 p36) (or (not p20) p5 p20 (not p34) (not p27)) (or (not p22) p33 p15 p15 (not p28)) (or p4 p10 (not p4) p28 (not p2)) (or p37 (not p26) p33 p15 p11) (or (not p24) p32 p4 p26 p11) (or p38 p9 p28 (not p1) p2) (or (not p10) (not p0) p21 (not p28) p37) (or (not p8) (not p8) p14 (not p10) p15) (or p31 (not p19) (not p16) p12 p26) (or p4 (not p32) p27 (not p27) (not p5)) (or (not p19) p29 (not p2) p3 (not p15)) (or (not p33) p35 (not p1) p6 p31) (or p24 p37 (not p12) p35 p27) (or (not p33) p3 (not p28) (not p17) p4) (or p34 (not p22) (not p32) (not p34) p15) (or (not p0) p28 (not p30) (not p29) (not p0)) (or (not p25) p5 (not p24) (not p21) (not p8)) (or p2 (not p14) p4 (not p23) (not p34)) (or (not p19) (not p10) p33 p9 p33) (or (not p23) (not p16) (not p28) p2 (not p1)) (or p20 (not p21) p37 p14 (not p39)) (or p2 (not p11) p4 p9 (not p27)) (or (not p11) (not p9) (not p8) (not p26) p29) (or p31 (not p10) p22 p0 (not p16)) (or (not p7) p30 p1 (not p0) (not p35)) (or p39 (not p31) (not p5) (not p18) p18) (or (not p4) (not p35) (not p8) (not p7) p37) (or p34 (not p1) p31 p31 (not p18)) (or (not p31) (not p33) (not p3) (not p11) (not p20)) (or p26 p27 (not p1) (not p8) p5) (or p27 (not p17) (not p10) (not p2) p26) (or p2 p29 p22 (not p2) (not p9)) (or (not p11) p14 (not p28) (not p37) (not p19)) (or (not p6) p8 (not p4) p29 (not p35)) (or (not p31) p10 p33 p16 p4) (or (not p22) (not p37) (not p24) p12 (not p29)) (or p34 (not p4) p11 (not p30) p20) (or p3 (not p3) (not p9) p16 (not p13)) (or (not p8) p13 p27 (not p1) p36) (or (not p29) (not p3) (not p21) p18 p5) (or p16 p30 p36 p3 (not p25)) (or (not p20) (not p25) (not p25) p33 (not p33)) (or p25 p39 (not p13) p22 p15) (or p27 p23 p4 (not p36) p38) (or p19 (not p6) (not p37) p36 p15) (or p19 p36 p21 (not p20) p37) (or (not p3) p1 (not p3) (not p24) p0) (or (not p33) p10 (not p32) (not p20) p10) (or (not p5) (not p8) p4 p27 p0) (or p5 p11 (not p11) (not p5) (not p16)) (or (not p7) p15 (not p27) p1 p10) (or p17 (not p34) p11 p0 p13) (or (not p6) p14 (not p9) (not p11) (not p13)) (or p24 p0 p6 (not p2) p3) (or (not p7) (not p39) (not p5) (not p34) p16) (or (not p39) p36 (not p18) p3 (not p33)) (or (not p0) (not p27) p4 (not p2) p22) (or p11 p35 p39 p22 (not p29)) (or (not p10) p5 p9 (not p34) (not p11)) (or (not p19) p39 (not p30) p22 (not p33)) (or (not p39) p29 p4 (not p20) (not p7)) (or (not p13) p36 p25 (not p9) p30) (or (not p17) (not p8) (not p4) p31 (not p8)) (or (not p35) (not p27) p17 p5 (not p34)) (or (not p27) p27 (not p12) p22 (not p10)) (or p39 (not p22) (not p9) p5 p34) (or (not p10) (not p11) p8 p18 (not p11)) (or (not p29) (not p18) p34 p37 p6) (or p12 (not p0) p34 (not p3) (not p36)) (or (not p13) (not p31) (not p19) p4 (not p14)) (or p1 p11 (not p7) (not p27) p3) (or p18 p6 (not p8) p27 (not p34)) (or (not p34) (not p11) (not p38) p23 (not p21)) (or p14 p3 p1 p22 p16) (or (not p6) p0 p27 (not p15) (not p10)) (or (not p6) (not p33) (not p18) (not p7) p24) (or (not p30) p37 (not p12) (not p21) p17) (or (not p36) p0 p38 (not p30) p0) (or (not p38) (not p10) (not p12) (not p34) p1) (or (not p20) (not p11) (not p8) (not p30) (not p15)) (or (not p33) p38 p7 (not p30) (not p28)) (or p38 p21 (not p17) p20 (not p28)) (or p1 (not p35) (not p6) (not p6) (not p22)) (or p23 p29 (not p10) p14 (not p21)) (or p7 p19 p18 p24 (not p14)) (or p10 p36 (not p19) (not p29) (not p0)) (or (not p4) (not p19) (not p15) (not p31) p11) (or p35 p11 p30 (not p4) (not p15)) (or (not p8) p16 (not p13) (not p39) (not p3)) (or (not p14) (not p31) (not p18) (not p38) (not p3)) (or p28 (not p20) p2 p33 (not p3)) (or (not p34) p15 p0 p24 (not p16)) (or (not p28) (not p37) p24 (not p13) p22) (or (not p31) p38 (not p7) (not p16) p29) (or p24 (not p28) p26 (not p6) (not p19)) (or p3 (not p26) (not p1) p33 (not p29)) (or (not p1) p32 (not p24) p25 p26) (or (not p11) (not p6) (not p10) p6 p38) (or (not p18) (not p9) (not p38) (not p0) (not p35)) (or p29 p37 (not p2) (not p5) (not p1)) (or p3 p39 (not p36) (not p7) (not p29)) (or (not p24) (not p30) p15 (not p17) p1) (or p33 p28 (not p29) (not p16) p15) (or (not p33) (not p5) (not p26) p31 p36) (or p32 p31 p19 p4 (not p19)) (or (not p6) (not p11) (not p25) (not p5) p31) (or p29 p5 p22 p2 (not p30)) (or p5 (not p20) p2 p20 (not p6)) (or p37 (not p22) (not p13) p3 (not p27)) (or (not p25) (not p20) p12 p12 p15) (or p8 p23 p30 (not p38) p37) (or (not p21) (not p3) (not p18) (not p24) (not p26)) (or (not p16) p17 (not p27) p16 p16) (or p8 p39 (not p0) p16 (not p34)) (or (not p29) (not p1) p22 p36 p17) (or (not p12) (not p12) p29 p10 p14) (or p19 (not p10) p21 (not p16) (not p15)) (or (not p10) p26 (not p16) (not p39) (not p20)) (or p7 p33 (not p8) p4 p31) (or p32 (not p37) p32 (not p23) p15) (or p11 (not p17) (not p38) p27 (not p16)) (or (not p7) (not p22) p26 (not p15) (not p6)) (or p16 (not p37) (not p22) (not p15) (not p2)) (or p4 (not p8) p24 p3 p1) (or (not p19) p38 p38 p31 p3) (or p3 (not p22) (not p8) p9 (not p0)) (or (not p4) (not p16) (not p7) (not p30) (not p32)) (or (not p15) (not p14) p17 p36 (not p12)) (or (not p33) p0 p20 p3 p9) (or p22 p13 (not p11) (not p17) (not p26)) (or p17 (not p14) p39 p13 p24) (or (not p2) (not p27) (not p35) p39 (not p10)) (or p27 p29 (not p38) p19 (not p5)) (or (not p24) (not p30) (not p0) (not p19) p34) (or p38 p21 p25 p4 p36) (or p15 p28 p15 p5 (not p5)) (or p38 (not p14) p24 (not p6) p6) (or p10 p37 (not p12) p26 p17) (or p20 (not p9) p27 (not p3) p22) (or (not p29) p20 p23 (not p7) (not p14)) (or (not p12) (not p21) (not p37) (not p1) (not p26)) (or p7 (not p19) p27 p2 p8) (or p21 p3 p37 (not p8) (not p2)) (or (not p7) (not p30) (not p35) p37 (not p24)) (or (not p31) p13 p37 p23 p17) (or (not p31) (not p30) (not p6) p22 (not p7)) (or (not p31) (not p29) (not p23) (not p31) p7) (or (not p21) (not p20) (not p24) (not p15) (not p3)) (or (not p39) p30 (not p21) p16 p27) (or (not p29) p23 p25 p12 (not p37)) (or p36 p13 (not p30) p29 (not p11)) (or (not p34) (not p13) p11 (not p34) (not p12)) (or (not p12) (not p36) (not p12) (not p3) (not p0)) (or p0 (not p5) (not p27) (not p27) p2) (or p33 p36 p34 p9 p26) (or p36 p35 (not p36) p26 p34) (or p17 (not p27) p7 p17 (not p19)) (or p5 (not p31) (not p31) p39 (not p9)) (or p25 (not p34) (not p32) p1 (not p2)) (or p35 (not p4) (not p38) p31 (not p36)) (or (not p14) (not p8) (not p28) p22 p27) (or p21 (not p0) p24 p3 (not p19)) (or p13 (not p33) (not p30) (not p13) (not p6)) (or (not p17) (not p16) (not p10) (not p9) (not p14)) (or (not p16) (not p14) (not p19) (not p6) (not p30)) (or (not p34) p2 (not p3) p14 (not p6)) (or p34 (not p11) p23 (not p2) (not p5)) (or p8 p32 p11 (not p23) (not p26)) (or p24 p19 (not p7) p9 (not p27)) (or p3 (not p37) p14 (not p1) p19) (or (not p38) (not p33) p37 p6 p6) (or (not p9) (not p30) p4 (not p37) (not p19)) (or (not p38) (not p23) (not p0) (not p13) p34) (or (not p24) (not p25) p38 (not p20) p13) (or (not p24) p17 (not p14) p11 p1) (or (not p16) p0 (not p6) (not p34) p13) (or p9 (not p24) p26 p6 p2) (or p33 (not p30) p13 (not p8) p39) (or p3 (not p4) p12 p26 p29) (or p12 p16 p38 p0 (not p32)) (or p36 p20 (not p14) (not p4) p8) (or (not p7) (not p21) (not p1) p39 (not p22)) (or (not p30) p26 p20 p7 (not p17)) (or p37 p38 (not p4) p14 p4) (or p15 (not p27) (not p27) p25 p24) (or (not p29) (not p8) p0 p0 (not p36)) (or p11 (not p20) p26 (not p11) p33) (or (not p39) (not p39) (not p6) p1 (not p14)) (or (not p0) (not p8) p34 (not p21) p26) (or (not p25) (not p37) p1 (not p15) (not p6)) (or (not p2) (not p4) (not p23) p35 p23) (or (not p3) p14 (not p10) p0 (not p8)) (or (not p36) p4 (not p3) p0 p11) (or p28 (not p24) (not p5) (not p1) p20) (or (not p9) p27 (not p8) (not p3) p18) (or (not p13) p15 p35 p38 p24) (or p14 p39 (not p16) (not p18) p13) (or p8 (not p6) p12 p37 p31) (or p1 (not p24) (not p4) p22 p7) (or p31 p19 (not p11) (not p1) (not p39)) (or (not p35) p19 p5 p18 p28) (or p24 (not p6) (not p35) (not p15) (not p24)) (or p16 (not p16) (not p17) p14 p34) (or (not p21) p6 (not p6) p8 p25) (or (not p33) (not p6) (not p9) (not p9) p23) (or (not p1) p34 (not p34) (not p13) (not p36)) (or p38 p31 p19 p19 (not p9)) (or (not p34) p29 (not p39) p27 (not p36)) (or p26 p4 p4 (not p25) p32) (or (not p23) (not p27) (not p3) p12 (not p21)) (or (not p14) p17 (not p26) (not p11) (not p37)) (or (not p31) (not p37) p36 (not p27) (not p26)) (or p25 (not p14) p5 p39 (not p25)) (or p5 (not p26) (not p29) p13 (not p10)) (or (not p10) p30 p38 p5 (not p22)) (or p20 p22 (not p29) (not p10) p33) (or p9 p11 p7 p35 p3) (or p3 (not p19) (not p7) p9 (not p16)) (or (not p19) (not p33) p33 (not p18) p34) (or (not p23) p38 p3 p4 (not p18)) (or p13 (not p33) (not p32) p39 p20) (or p27 (not p20) p33 (not p37) p1) (or p19 p4 p10 (not p24) (not p24)) (or p26 (not p9) p35 p11 (not p6)) (or p16 (not p31) (not p23) (not p11) (not p5)) (or (not p22) p4 p6 (not p23) (not p18)) (or (not p33) p10 p17 p13 p15) (or (not p10) (not p20) (not p33) (not p2) (not p28)) (or p17 p34 p16 p4 (not p30)) (or (not p15) p7 (not p14) (not p29) p34) (or p16 (not p17) p27 (not p13) p29) (or p34 (not p26) (not p17) p32 p39) (or (not p19) p34 p38 p19 p8) (or (not p18) (not p5) (not p31) (not p6) p37) (or p12 p34 p11 p17 (not p31)) (or (not p21) p39 p25 (not p6) p29) (or (not p15) (not p16) p20 (not p17) p5) (or (not p7) (not p10) p34 (not p35) (not p24)) (or p2 p23 (not p34) p21 p28) (or (not p2) (not p25) (not p35) (not p35) (not p27)) (or p15 (not p37) (not p32) p13 p14) (or p24 (not p9) p2 p14 p29) (or (not p34) p17 (not p28) p4 (not p29)) (or (not p25) (not p6) p6 (not p3) p12) (or p9 p26 p37 p22 (not p2)) (or p25 p10 p32 (not p11) p31) (or (not p28) (not p19) p17 p35 p37) (or p21 p32 p12 p7 (not p32)) (or (not p5) (not p39) (not p12) p35 p38) (or (not p6) (not p26) p3 (not p35) p25) (or (not p35) p32 (not p4) p16 (not p17)) (or (not p26) p12 (not p7) p23 (not p1)) (or (not p4) p2 p23 (not p29) (not p13)) (or p23 p9 p28 p5 p16) (or p18 p28 (not p27) (not p13) p28) (or p14 p1 (not p20) (not p12) (not p24)) (or p29 p14 (not p26) p29 p38) (or (not p31) p31 (not p16) p23 (not p8)) (or p9 p10 p20 (not p21) (not p9)) (or p36 (not p28) (not p1) p8 (not p6)) (or (not p37) (not p37) (not p39) (not p23) p30) (or p20 p8 p21 p34 p19) (or (not p27) (not p34) p0 (not p18) (not p21)) (or p27 p1 p12 (not p16) p32) (or (not p27) (not p27) p5 p18 (not p1)) (or p16 (not p30) p22 p13 (not p5)) (or p16 (not p12) (not p38) p1 (not p39)) (or p37 (not p38) (not p25) (not p25) p34) (or p37 p15 (not p29) (not p10) (not p8)) (or (not p4) p14 p10 (not p32) (not p36)) (or (not p1) (not p38) (not p14) (not p36) (not p31)) (or (not p36) p33 (not p29) (not p6) (not p12)) (or (not p36) p17 (not p2) p20 p1) (or (not p6) (not p27) p32 (not p8) p36) (or p21 p39 (not p39) (not p11) (not p24)) (or (not p23) p8 p24 (not p4) (not p34)) (or p32 (not p10) (not p11) (not p29) (not p22)) (or p8 (not p23) p23 p26 (not p8)) (or p7 p7 p7 p30 (not p19)) (or p34 (not p8) p5 (not p20) (not p13)) (or p23 p28 (not p30) (not p7) (not p20)) (or p9 (not p24) (not p24) p25 (not p28)) (or p1 p20 (not p23) p33 (not p34)))
)
(check-sat)
(get-model)
